# Node Net
270   1
885   1
 31   1
883   2
510   2
241   2
884   3
873   3
894   3
 25   4
 20   4
541   4
540   5
887   5
810   5
571   6
879   6
  4   6
661   7
 26   7
  7   7
  3   8
211   8
601   9
301   9
841  10
900  10
450  11
 29  11
871  12
121  12
